;; Mutation-Based Equivalence Benchmark
;; Source:     AutomatArk / instance12363.smt2
;; Mutations:  range_expand_hi, intersect_no_slash_slash
;; Status:     sat
;;
;; Original regex vs mutated regex
;; Equivalence check: unsat ⟺ L(R1) = L(R2)

(set-info :smt-lib-version 2.6)
(set-info :category "mutation")
(set-info :status sat)
(set-logic QF_S)


;; R1: original
;; R2: mutated (range_expand_hi, intersect_no_slash_slash)
(assert
  (not
    (=
      (re.++ (re.opt (str.to_re "$")) (re.opt (re.union (re.++ (re.range "1" "9") (re.opt (re.++ (str.to_re ".") ((_ re.loop 2 2) (re.range "0" "9")))) ((_ re.loop 3 3) (re.range "0" "9")) (re.* (re.range "0" "9"))) (re.* (re.union (re.++ ((_ re.loop 1 3) (re.range "0" "9")) (str.to_re ",") ((_ re.loop 3 3) (re.range "0" "9"))) (re.++ ((_ re.loop 1 3) (re.range "0" "9")) (str.to_re ",") ((_ re.loop 3 3) (re.range "0" "9")) (str.to_re ",") ((_ re.loop 3 3) (re.range "0" "9")) (re.opt (re.++ (str.to_re ".") ((_ re.loop 2 2) (re.range "0" "9"))))))) (re.++ ((_ re.loop 1 3) (re.range "0" "9")) (str.to_re ",") ((_ re.loop 3 3) (re.range "0" "9"))) (re.++ ((_ re.loop 1 3) (re.range "0" "9")) (str.to_re ",") ((_ re.loop 3 3) (re.range "0" "9")) (re.opt (re.++ (str.to_re ".") ((_ re.loop 2 2) (re.range "0" "9"))))))) (str.to_re "\u{a}"))
      (re.++ (re.opt (str.to_re "$")) (re.opt (re.union (re.++ (re.range "1" "9") (re.opt (re.++ (str.to_re ".") (re.inter ((_ re.loop 2 2) (re.range "0" "9")) (re.comp (re.++ re.all (str.to_re "//") re.all))))) ((_ re.loop 3 3) (re.range "0" "9")) (re.* (re.range "0" "9"))) (re.* (re.union (re.++ ((_ re.loop 1 3) (re.range "0" "9")) (str.to_re ",") ((_ re.loop 3 3) (re.range "0" "9"))) (re.++ ((_ re.loop 1 3) (re.range "0" "9")) (str.to_re ",") ((_ re.loop 3 3) (re.range "0" "9")) (str.to_re ",") ((_ re.loop 3 3) (re.range "0" "9")) (re.opt (re.++ (str.to_re ".") ((_ re.loop 2 2) (re.range "0" ":"))))))) (re.++ ((_ re.loop 1 3) (re.range "0" "9")) (str.to_re ",") ((_ re.loop 3 3) (re.range "0" "9"))) (re.++ ((_ re.loop 1 3) (re.range "0" "9")) (str.to_re ",") ((_ re.loop 3 3) (re.range "0" "9")) (re.opt (re.++ (str.to_re ".") ((_ re.loop 2 2) (re.range "0" "9"))))))) (str.to_re "\u{a}")))))

(check-sat)
(exit)
